webassembly/ejemplos_dzn/folder15_json_57.dzn
TERM = { '.', 's(2)', 's(4)', 'in_1', 'local_0', 'local_1', 'in_2', 'in_4', 'in_3', 's(1)', 's(0)', 's(3)', 'in_0'};
null = '.';
s = 15;
n = 10;
ndeps = 4;
max_registers_sz = 5;
NR = 2;
registers = [|'local_0', 'local_1', |'local_1', 's(4)'|];
dependencies = [|'call[function_index(0)]_1', 'i32.load8_u_2', |'call[function_index(0)]_1', 'i32.load16_u_10', |'i32.load8_u_2', 'call[function_index(1)]_12', |'i32.load16_u_10', 'call[function_index(1)]_12'|];
GET_ENUM = { GET1, GET2, GET3, GET4, GET5, GET6, GET7};
SET_ENUM = { SET1, SET2, SET3, SET4, SET5, SET6, SET7};
TEE_ENUM = { TEE1, TEE2, TEE3, TEE4, TEE5, TEE6, TEE7};
N = 5;
OP = { 'i32.add_0', 'call[function_index(0)]_1', 'call[function_index(1)]_12', 'i32.load8_u_2', 'i32.load16_u_10' };
in_ops = [2, 3, 1, 1, 1 ];
out_ops = [1, 0, 2, 1, 1 ];
in1 = ['in_0', 's(0)', 'local_1', 'in_4', 'local_1' ];
in2 = ['in_1', 'in_2', '.', '.', '.' ];
in3 = ['.', 'in_3', '.', '.', '.' ];
out1 = ['s(0)', '.', 's(4)', 's(1)', 's(2)' ];
out2 = ['.', '.', 's(3)', '.', '.' ];
out3 = ['.', '.', '.', '.', '.' ];
comm = [true, false, false, false, false ];
gas = [1, 1, 1, 1, 1 ];
sz = [1, 1, 1, 1, 1 ];
stor = [false, true, true, false, false ];
lb = [ 1, 1, 1, 1, 1 ];
ub = [ 15, 15, 15, 15, 15 ];
startstack = [ 'in_0', 'in_1', 'in_2', 'in_3', 'in_4', null, null, null, null, null ];
endstack = [ 'local_1', 's(3)', 's(2)', 's(1)', null, null, null, null, null, null ];
